DIMENSION: 20
EDGE_WEIGHT_TYPE: EXPLICIT
EDGE_WEIGHT_FORMAT: FULL_MATRIX
EDGE_WEIGHT_SECTION:
32767 32767 91 32767 85 32767 15 32767 32767 32767 32767 32767 32767 32767 81 32767 32767 39 32767 33 
32767 32767 6 32767 32767 32767 32767 91 32767 32767 32767 61 32767 32767 82 32767 32767 32767 32767 32767 
91 6 32767 90 32767 81 32767 32767 7 30 36 52 7 32767 82 14 32767 32767 32767 79 
32767 32767 90 32767 31 32767 32767 32767 32767 32767 32767 32767 32767 32767 32767 73 32767 60 32767 32767 
85 32767 32767 31 32767 32767 24 70 32767 32767 18 36 32767 32767 32767 32767 32767 32767 32767 32767 
32767 32767 81 32767 32767 32767 32767 98 32767 26 32767 32767 31 32767 32767 50 39 4 32767 74 
15 32767 32767 32767 24 32767 32767 19 63 57 44 32767 32767 32767 32767 32767 32767 45 97 32767 
32767 91 32767 32767 70 98 19 32767 32767 82 32767 90 32767 45 32767 32767 32767 32767 32767 32767 
32767 32767 7 32767 32767 32767 63 32767 32767 17 32767 13 5 28 32767 46 28 32767 26 32767 
32767 32767 30 32767 32767 26 57 82 17 32767 79 32767 32767 32767 32767 32767 9 80 43 11 
32767 32767 36 32767 18 32767 44 32767 32767 79 32767 32767 23 32767 89 86 43 32767 32767 32767 
32767 61 52 32767 36 32767 32767 90 13 32767 32767 32767 32767 32767 75 32767 65 32767 51 32767 
32767 32767 7 32767 32767 31 32767 32767 5 32767 23 32767 32767 32767 32767 32767 32767 32767 32767 43 
32767 32767 32767 32767 32767 32767 32767 45 28 32767 32767 32767 32767 32767 36 84 5 32767 32767 32767 
81 82 82 32767 32767 32767 32767 32767 32767 32767 89 75 32767 36 32767 53 95 26 32767 82 
32767 32767 14 73 32767 50 32767 32767 46 32767 86 32767 32767 84 53 32767 32767 32767 32767 55 
32767 32767 32767 32767 32767 39 32767 32767 28 9 43 65 32767 5 95 32767 32767 42 32767 32767 
39 32767 32767 60 32767 4 45 32767 32767 80 32767 32767 32767 32767 26 32767 42 32767 32767 32767 
32767 32767 32767 32767 32767 32767 97 32767 26 43 32767 51 32767 32767 32767 32767 32767 32767 32767 32767 
33 32767 79 32767 32767 74 32767 32767 32767 11 32767 32767 43 32767 82 55 32767 32767 32767 32767 
EOF